
Gurobi 10.0.3 (linux64, gurobi_cl) logging started Fri Nov 10 20:14:19 2023

Set parameter Username
Set parameter TimeLimit to value 3600
Set parameter LogFile to value "RCPSP_1799.log"
Set parameter Threads to value 32

Gurobi 10.0.3 (linux64, gurobi_cl) logging started Wed Nov 15 04:45:12 2023

Set parameter Username
Set parameter TimeLimit to value 3600
Set parameter LogFile to value "RCPSP_1799.log"
Set parameter Threads to value 32
Academic license - for non-commercial use only - expires 2024-10-30
Using license file /home/jrivera6/gurobi-licenses/v1003/compute-0-37/gurobi.lic

Gurobi Optimizer version 10.0.3 build v10.0.3rc0 (linux64)
Copyright (c) 2023, Gurobi Optimization, LLC

Read MPS format model from file RCPSP_1799.mps
Reading time = 0.69 seconds
RCPSP_1799: 75251 rows, 29890 columns, 280585 nonzeros

CPU model: Intel(R) Xeon(R) Gold 6242 CPU @ 2.80GHz, instruction set [SSE2|AVX|AVX2|AVX512]
Thread count: 32 physical cores, 32 logical processors, using up to 32 threads

Optimize a model with 75251 rows, 29890 columns and 280585 nonzeros
Model fingerprint: 0xc96a926c
Variable types: 122 continuous, 29768 integer (29768 binary)
Coefficient statistics:
  Matrix range     [1e+00, 6e+02]
  Objective range  [1e+00, 1e+00]
  Bounds range     [1e+00, 1e+00]
  RHS range        [1e+00, 6e+02]
Presolve removed 15692 rows and 3538 columns (presolve time = 5s) ...
Presolve removed 15692 rows and 3538 columns (presolve time = 10s) ...
Presolve removed 19128 rows and 4827 columns
Presolve time: 12.04s
Presolved: 56123 rows, 25063 columns, 219415 nonzeros
Variable types: 121 continuous, 24942 integer (24942 binary)

Deterministic concurrent LP optimizer: primal and dual simplex (primal and dual model)
Showing first log only...

Root relaxation presolved: 56120 rows, 25066 columns, 219409 nonzeros


Root simplex log...

Iteration    Objective       Primal Inf.    Dual Inf.      Time
       0    1.0455966e+02   7.890600e-03   1.818975e+08     14s
    3471    1.0400000e+02   0.000000e+00   0.000000e+00     15s
    3471    1.0400000e+02   0.000000e+00   0.000000e+00     15s
Concurrent spin time: 2.12s

Solved with dual simplex (dual model)

Root relaxation: objective 1.040000e+02, 27157 iterations, 4.60 seconds (0.38 work units)
Total elapsed time = 24.65s
Total elapsed time = 28.32s

    Nodes    |    Current Node    |     Objective Bounds      |     Work
 Expl Unexpl |  Obj  Depth IntInf | Incumbent    BestBd   Gap | It/Node Time

     0     0  104.00000    0 1239          -  104.00000      -     -   51s
     0     0  104.00000    0 1230          -  104.00000      -     -   52s
     0     0  104.00000    0 2108          -  104.00000      -     -  184s
     0     0  104.00000    0 2026          -  104.00000      -     -  191s
     0     0  104.00000    0 2017          -  104.00000      -     -  191s
     0     0  104.00569    0 2386          -  104.00569      -     -  226s
     0     0  104.00569    0 2374          -  104.00569      -     -  237s
     0     0  104.00569    0 2348          -  104.00569      -     -  237s
     0     0  105.00000    0 1348          -  105.00000      -     -  283s
     0     0  105.00000    0 1346          -  105.00000      -     -  284s
     0     0  105.00000    0 1670          -  105.00000      -     -  302s
     0     0  105.00000    0 1588          -  105.00000      -     -  303s
     0     0  105.00000    0 1702          -  105.00000      -     -  332s
     0     0  105.00000    0 1738          -  105.00000      -     -  339s
     0     0  105.00000    0 1725          -  105.00000      -     -  340s
     0     0  105.00000    0 2011          -  105.00000      -     -  364s
     0     0  105.00000    0 1820          -  105.00000      -     -  369s
     0     0  105.00000    0 1808          -  105.00000      -     -  377s
     0     0  105.00000    0 1756          -  105.00000      -     -  383s
     0     0  105.00000    0 1712          -  105.00000      -     -  384s
     0     0  105.00000    0 2069          -  105.00000      -     -  389s
     0     0  105.00000    0  766          -  105.00000      -     -  433s
     0     0  105.00000    0  764          -  105.00000      -     -  433s
     0     0  105.00000    0 2104          -  105.00000      -     -  471s
     0     0  105.47433    0 1945          -  105.47433      -     -  513s
     0     0  105.47433    0 1842          -  105.47433      -     -  522s
     0     0  105.47433    0 1695          -  105.47433      -     -  526s
     0     0  105.47433    0 1673          -  105.47433      -     -  526s
     0     0  105.86985    0 1949          -  105.86985      -     -  540s
     0     0  105.86985    0 1913          -  105.86985      -     -  545s
     0     0  105.86985    0 1831          -  105.86985      -     -  547s
     0     0  105.91529    0 2158          -  105.91529      -     -  582s
     0     0  105.91529    0 2042          -  105.91529      -     -  589s
     0     0  105.91529    0 2043          -  105.91529      -     -  599s
     0     0  105.91529    0 1949          -  105.91529      -     -  600s
     0     0  106.81513    0 1987          -  106.81513      -     -  628s
     0     0  106.81513    0 1882          -  106.81513      -     -  629s
     0     0  106.81513    0 2084          -  106.81513      -     -  701s
     0     0  106.81513    0 1965          -  106.81513      -     -  717s
     0     0  106.81513    0 2006          -  106.81513      -     -  729s
     0     0  106.81513    0 2025          -  106.81513      -     -  740s
     0     0  106.81513    0 1957          -  106.81513      -     -  747s
     0     0  106.81513    0 1938          -  106.81513      -     -  748s
     0     0  106.81513    0 2110          -  106.81513      -     -  791s
     0     0  106.81513    0 2074          -  106.81513      -     -  794s
     0     0  106.81513    0 2067          -  106.81513      -     -  794s
     0     0  106.81513    0 1751          -  106.81513      -     -  817s
     0     0  106.81513    0 1735          -  106.81513      -     -  819s
     0     0  106.81513    0 1728          -  106.81513      -     -  819s
     0     0  106.81513    0 2252          -  106.81513      -     -  846s
     0     0  106.81513    0 2114          -  106.81513      -     -  855s
     0     0  106.81513    0 1995          -  106.81513      -     -  857s
     0     0  106.81513    0 1990          -  106.81513      -     -  858s
     0     0  106.81513    0 2190          -  106.81513      -     -  873s
     0     0  106.81513    0 2172          -  106.81513      -     -  879s
     0     0  106.81513    0 1994          -  106.81513      -     -  885s
     0     0  106.81513    0 1936          -  106.81513      -     -  890s
     0     0  106.81513    0 2062          -  106.81513      -     -  893s
     0     0  106.81513    0 1989          -  106.81513      -     -  897s
     0     0  106.81513    0 1985          -  106.81513      -     -  897s
     0     0  106.81513    0 2056          -  106.81513      -     -  925s
     0     0  106.81513    0 2031          -  106.81513      -     -  926s
     0     0  106.81513    0 2107          -  106.81513      -     -  974s
     0     0  106.81513    0 2001          -  106.81513      -     -  979s
     0     0  106.81513    0 1967          -  106.81513      -     -  981s
     0     0  106.81513    0 1958          -  106.81513      -     -  981s
     0     0  106.81513    0 1954          -  106.81513      -     - 1002s
     0     0  106.81513    0 1838          -  106.81513      -     - 1005s
     0     0  106.81513    0 1824          -  106.81513      -     - 1006s
     0     0  106.81513    0 2042          -  106.81513      -     - 1044s
     0     0  106.81513    0 2065          -  106.81513      -     - 1054s
     0     0  106.81513    0 1895          -  106.81513      -     - 1058s
     0     0  106.81513    0 1877          -  106.81513      -     - 1058s
     0     0  106.81513    0 1405          -  106.81513      -     - 1187s
     0     0  106.81513    0 1443          -  106.81513      -     - 1189s
     0     0  106.81513    0 1438          -  106.81513      -     - 1189s
     0     0  106.81513    0 1616          -  106.81513      -     - 1196s
     0     0  106.81513    0 1770          -  106.81513      -     - 1199s
     0     0  106.81513    0 1719          -  106.81513      -     - 1200s
     0     0  106.81513    0 1717          -  106.81513      -     - 1200s
     0     0  106.81513    0 1440          -  106.81513      -     - 1234s
     0     0  106.81513    0 1725          -  106.81513      -     - 1245s
     0     0  106.81513    0 1769          -  106.81513      -     - 1248s
     0     0  106.81513    0 1693          -  106.81513      -     - 1250s
     0     0  106.81513    0 1677          -  106.81513      -     - 1253s
     0     0  106.81513    0 1692          -  106.81513      -     - 1255s
     0     0  106.81513    0 1728          -  106.81513      -     - 1256s
     0     0  106.81513    0 1726          -  106.81513      -     - 1256s
     0     0  106.81513    0 1820          -  106.81513      -     - 1263s
     0     0  106.81513    0 1771          -  106.81513      -     - 1265s
     0     0  106.81513    0 1768          -  106.81513      -     - 1265s
     0     0  106.81513    0 1859          -  106.81513      -     - 1319s
     0     0  106.81513    0 1851          -  106.81513      -     - 1321s
     0     0  106.81513    0 1837          -  106.81513      -     - 1322s
     0     0  106.81513    0 1522          -  106.81513      -     - 1406s
     0     0  106.81513    0 1566          -  106.81513      -     - 1407s
     0     0  106.81513    0 1558          -  106.81513      -     - 1408s
     0     0  106.81513    0 1593          -  106.81513      -     - 1409s
     0     0  106.81513    0 1907          -  106.81513      -     - 1413s
     0     0  106.81513    0 1895          -  106.81513      -     - 1413s
     0     0  106.81513    0 1349          -  106.81513      -     - 1447s
     0     0  106.81513    0 1358          -  106.81513      -     - 1448s
     0     0  106.81513    0 1356          -  106.81513      -     - 1449s
     0     0  106.81513    0 1238          -  106.81513      -     - 1923s
     0     2  106.81513    0 1205          -  106.81513      -     - 2397s
     1     5  106.81513    1 1211          -  106.81513      -  5671 3451s
     3     6  106.81513    2 1211          -  106.81513      -  2004 3894s

Cutting planes:
  Learned: 12
  Gomory: 5
  Cover: 39
  Implied bound: 2
  Clique: 23
  MIR: 49
  StrongCG: 3
  RLT: 9
  Relax-and-lift: 29

Explored 5 nodes (337021 simplex iterations) in 3894.70 seconds (183.21 work units)
Thread count was 32 (of 32 available processors)

Solution count 0

Time limit reached
Best objective -, best bound 1.068151255567e+02, gap -

Unable to retrieve attribute 'X'

